DIMENSION: 70
64
51
58
16
1
36
29
13
70
35
69
31
59
15
24
57
63
66
22
38
23
47
37
50
52
10
5
53
6
41
42
18
4
2
7
19
26
55
49
8
28
32
3
20
30
14
44
68
27
46
25
45
39
40
61
9
43
17
21
34
12
60
33
62
54
48
67
11
56
65
